Route #1: 62 20 32 61 13 
Route #2: 45 11 17 43 28 12 38 
Route #3: 9 23 54 63 2 58 48 
Route #4: 25 3 19 37 30 15 
Route #5: 52 16 60 47 46 4 5 34 
Route #6: 6 56 41 42 8 24 10 
Route #7: 18 22 1 26 27 14 57 
Route #8: 33 35 21 7 39 44 51 
Route #9: 55 59 31 50 36 40 49 53 29 
cost 1751.79
execution_time 34.187
